c case1888rte in MATPOWER https://matpower.org
p edge 1888 2308
e 1 2
e 2 3
e 3 4
e 3 5
e 3 6
e 5 6
e 5 8
e 5 10
e 5 11
e 5 13
e 5 15
e 5 17
e 5 20
e 5 22
e 5 23
e 5 24
e 6 7
e 7 8
e 8 9
e 9 10
e 11 12
e 13 14
e 15 16
e 17 18
e 18 19
e 18 20
e 20 21
e 20 22
e 20 24
e 20 50
e 20 53
e 20 54
e 23 26
e 23 47
e 23 49
e 23 112
e 23 121
e 23 122
e 24 25
e 25 28
e 25 30
e 25 43
e 25 44
e 26 27
e 28 29
e 28 30
e 30 31
e 30 32
e 30 33
e 33 34
e 33 36
e 33 38
e 33 40
e 34 35
e 36 37
e 38 39
e 40 41
e 41 42
e 42 90
e 42 91
e 43 46
e 44 45
e 44 46
e 46 47
e 46 49
e 46 70
e 46 71
e 46 91
e 46 92
e 47 48
e 48 49
e 50 51
e 51 52
e 52 53
e 52 64
e 52 68
e 54 55
e 54 56
e 56 57
e 57 58
e 57 59
e 57 61
e 58 59
e 59 60
e 59 61
e 59 62
e 59 67
e 59 69
e 61 63
e 63 65
e 63 237
e 63 239
e 63 243
e 64 65
e 65 66
e 66 67
e 68 82
e 68 121
e 68 146
e 68 147
e 69 137
e 69 139
e 69 157
e 69 167
e 69 168
e 70 71
e 71 72
e 71 73
e 71 77
e 72 73
e 73 74
e 73 75
e 73 76
e 73 78
e 73 79
e 73 81
e 73 82
e 77 88
e 77 121
e 77 123
e 78 79
e 79 80
e 80 81
e 81 84
e 82 83
e 83 87
e 84 85
e 84 86
e 86 89
e 86 95
e 87 88
e 87 115
e 87 117
e 87 119
e 87 121
e 89 90
e 90 152
e 90 155
e 91 93
e 92 94
e 93 686
e 93 687
e 93 689
e 94 96
e 94 97
e 94 98
e 95 109
e 95 110
e 95 181
e 95 185
e 95 217
e 95 222
e 95 226
e 95 227
e 95 229
e 95 265
e 95 267
e 96 97
e 97 100
e 98 99
e 100 101
e 100 102
e 100 103
e 100 104
e 100 105
e 105 106
e 105 107
e 105 108
e 105 113
e 105 125
e 105 129
e 105 131
e 106 107
e 109 110
e 110 111
e 112 113
e 113 114
e 115 116
e 117 118
e 119 120
e 121 136
e 121 137
e 121 139
e 122 124
e 122 127
e 123 133
e 123 135
e 124 125
e 125 126
e 127 128
e 128 129
e 128 130
e 129 130
e 129 131
e 131 132
e 133 134
e 134 135
e 134 136
e 135 140
e 135 143
e 135 163
e 135 196
e 135 197
e 135 198
e 137 138
e 138 139
e 138 142
e 140 141
e 142 145
e 143 144
e 145 146
e 145 154
e 146 160
e 147 148
e 147 149
e 149 150
e 149 151
e 151 152
e 152 153
e 154 156
e 154 157
e 155 187
e 155 191
e 156 157
e 157 158
e 157 161
e 157 163
e 158 159
e 160 164
e 160 165
e 160 192
e 160 203
e 160 204
e 160 230
e 160 231
e 160 236
e 160 306
e 160 308
e 161 162
e 163 164
e 163 165
e 163 208
e 163 209
e 165 166
e 167 169
e 167 170
e 168 169
e 168 170
e 170 171
e 170 173
e 170 175
e 170 177
e 170 179
e 170 210
e 170 216
e 171 172
e 173 174
e 175 176
e 177 178
e 179 180
e 181 182
e 181 183
e 183 184
e 184 185
e 185 186
e 187 188
e 188 189
e 189 190
e 189 191
e 191 678
e 191 680
e 191 682
e 192 193
e 193 194
e 193 195
e 195 196
e 195 197
e 195 199
e 198 202
e 198 224
e 198 971
e 198 976
e 199 200
e 199 201
e 199 202
e 199 211
e 199 212
e 203 204
e 204 205
e 204 206
e 206 207
e 206 208
e 208 341
e 208 475
e 208 476
e 209 210
e 210 216
e 210 238
e 210 250
e 210 251
e 211 212
e 211 213
e 212 214
e 212 215
e 216 243
e 216 251
e 216 252
e 216 254
e 217 218
e 218 219
e 219 220
e 220 221
e 221 222
e 222 223
e 223 224
e 224 225
e 225 226
e 225 227
e 225 229
e 225 265
e 225 270
e 225 272
e 225 274
e 225 276
e 225 697
e 225 699
e 225 976
e 225 1739
e 225 1742
e 227 228
e 230 231
e 231 232
e 231 233
e 231 234
e 231 235
e 231 236
e 231 310
e 231 316
e 237 238
e 238 240
e 238 243
e 238 246
e 239 240
e 240 241
e 241 242
e 242 249
e 242 262
e 242 264
e 243 244
e 243 245
e 243 252
e 243 254
e 243 278
e 243 279
e 246 247
e 247 248
e 248 249
e 249 250
e 250 256
e 250 257
e 250 259
e 250 261
e 251 293
e 251 295
e 252 253
e 254 255
e 256 261
e 256 262
e 257 258
e 259 260
e 261 346
e 261 348
e 261 402
e 261 409
e 261 410
e 262 263
e 262 356
e 262 358
e 264 268
e 264 310
e 264 316
e 264 318
e 265 266
e 267 269
e 267 284
e 267 285
e 267 286
e 270 271
e 272 273
e 274 275
e 276 277
e 278 281
e 279 280
e 279 283
e 281 282
e 281 283
e 283 291
e 283 293
e 284 285
e 285 298
e 285 299
e 286 287
e 287 288
e 288 289
e 289 290
e 289 296
e 289 1752
e 289 1754
e 289 1757
e 291 292
e 292 293
e 293 294
e 295 375
e 295 381
e 296 297
e 298 300
e 299 301
e 299 302
e 300 302
e 302 303
e 302 304
e 304 305
e 305 1174
e 305 1202
e 305 1653
e 305 1682
e 305 1683
e 305 1688
e 306 307
e 307 310
e 308 309
e 309 312
e 310 311
e 310 329
e 310 333
e 310 338
e 310 339
e 312 313
e 312 314
e 312 315
e 312 324
e 312 474
e 312 475
e 312 478
e 312 480
e 316 317
e 316 319
e 316 327
e 316 343
e 316 345
e 316 385
e 316 392
e 316 393
e 318 320
e 318 322
e 318 349
e 318 350
e 318 422
e 318 425
e 319 320
e 320 321
e 322 323
e 324 325
e 325 326
e 327 328
e 329 330
e 329 331
e 331 332
e 333 334
e 333 335
e 335 336
e 336 337
e 337 338
e 339 340
e 339 341
e 341 342
e 342 343
e 342 345
e 342 410
e 342 411
e 343 344
e 346 347
e 346 348
e 348 349
e 348 351
e 348 352
e 348 354
e 348 355
e 350 351
e 352 353
e 354 355
e 355 356
e 355 357
e 355 360
e 355 361
e 358 359
e 359 399
e 359 400
e 360 361
e 361 362
e 361 363
e 361 367
e 361 370
e 363 364
e 364 365
e 365 366
e 367 368
e 367 369
e 370 371
e 370 373
e 371 372
e 373 374
e 375 376
e 375 377
e 377 378
e 377 379
e 379 380
e 379 381
e 381 382
e 381 383
e 381 384
e 383 384
e 384 390
e 384 397
e 384 404
e 384 1454
e 384 1456
e 385 386
e 385 387
e 387 388
e 387 389
e 390 391
e 392 394
e 392 395
e 393 396
e 395 396
e 396 484
e 396 500
e 396 509
e 396 513
e 397 398
e 397 399
e 399 403
e 399 407
e 399 412
e 400 401
e 400 402
e 402 404
e 402 406
e 404 405
e 406 407
e 406 408
e 409 410
e 410 429
e 410 431
e 410 463
e 410 466
e 411 416
e 411 419
e 412 413
e 412 436
e 412 438
e 413 414
e 414 415
e 416 417
e 416 418
e 419 420
e 419 421
e 422 423
e 423 424
e 424 471
e 424 472
e 425 426
e 426 427
e 427 428
e 427 429
e 427 433
e 428 429
e 429 430
e 429 431
e 431 432
e 433 434
e 434 435
e 435 452
e 435 454
e 435 455
e 436 437
e 437 440
e 437 443
e 438 439
e 438 440
e 440 441
e 440 442
e 440 445
e 443 444
e 445 446
e 445 447
e 447 448
e 447 449
e 449 450
e 450 451
e 452 453
e 453 454
e 454 456
e 454 457
e 454 463
e 454 464
e 454 465
e 455 458
e 455 459
e 459 460
e 460 461
e 460 462
e 462 486
e 462 594
e 462 755
e 462 759
e 463 464
e 463 465
e 463 471
e 466 467
e 466 468
e 468 469
e 468 470
e 471 486
e 471 487
e 471 549
e 471 551
e 471 577
e 471 599
e 471 602
e 472 473
e 472 549
e 472 550
e 474 475
e 475 477
e 475 659
e 475 661
e 475 956
e 475 957
e 476 492
e 476 494
e 476 496
e 476 498
e 476 931
e 476 964
e 476 971
e 476 973
e 477 478
e 478 479
e 478 482
e 480 481
e 480 483
e 482 484
e 483 484
e 484 485
e 486 487
e 487 488
e 487 490
e 488 489
e 490 491
e 492 493
e 494 495
e 496 497
e 498 499
e 500 501
e 501 502
e 502 503
e 502 504
e 502 505
e 502 506
e 502 507
e 502 508
e 502 516
e 502 523
e 502 526
e 509 510
e 510 511
e 511 512
e 512 516
e 513 514
e 514 515
e 515 612
e 515 613
e 516 517
e 516 518
e 516 519
e 516 520
e 516 521
e 516 522
e 516 523
e 523 524
e 523 525
e 523 545
e 523 551
e 526 527
e 526 528
e 526 529
e 526 530
e 526 531
e 526 532
e 532 533
e 533 534
e 533 535
e 533 537
e 533 540
e 533 630
e 533 632
e 533 712
e 533 713
e 535 536
e 537 538
e 537 539
e 540 541
e 540 542
e 540 543
e 540 544
e 545 546
e 546 547
e 547 548
e 548 549
e 548 595
e 548 598
e 550 552
e 550 586
e 550 589
e 550 592
e 551 553
e 551 556
e 551 559
e 551 562
e 551 565
e 551 568
e 551 571
e 551 574
e 551 577
e 553 554
e 554 555
e 555 556
e 555 557
e 557 558
e 559 560
e 560 561
e 561 562
e 561 563
e 563 564
e 565 566
e 566 567
e 567 568
e 567 569
e 569 570
e 571 572
e 572 573
e 573 574
e 573 575
e 575 576
e 577 578
e 577 580
e 577 582
e 577 584
e 577 651
e 577 652
e 577 653
e 578 579
e 580 581
e 582 583
e 584 585
e 586 587
e 586 588
e 589 590
e 589 591
e 592 593
e 593 594
e 594 595
e 595 596
e 595 603
e 595 727
e 595 734
e 595 735
e 596 597
e 598 601
e 598 741
e 598 763
e 598 805
e 598 809
e 599 600
e 600 601
e 602 731
e 602 732
e 603 604
e 604 605
e 604 606
e 604 607
e 604 608
e 604 610
e 608 609
e 610 611
e 610 724
e 610 776
e 610 782
e 610 792
e 612 614
e 612 615
e 613 615
e 613 617
e 613 622
e 615 616
e 615 617
e 617 618
e 617 619
e 617 620
e 617 621
e 617 623
e 617 626
e 617 628
e 622 653
e 622 654
e 623 624
e 624 625
e 624 626
e 626 627
e 626 633
e 626 637
e 626 640
e 628 629
e 628 632
e 628 639
e 628 641
e 628 647
e 628 648
e 630 631
e 630 632
e 632 633
e 632 634
e 634 635
e 634 636
e 637 638
e 638 639
e 638 643
e 638 650
e 638 651
e 640 746
e 640 748
e 641 642
e 641 643
e 643 644
e 644 645
e 645 646
e 645 647
e 645 650
e 645 668
e 645 670
e 645 671
e 648 649
e 649 662
e 649 663
e 650 651
e 651 652
e 651 653
e 651 852
e 651 826
e 651 895
e 651 896
e 653 654
e 653 655
e 653 657
e 654 659
e 654 661
e 654 896
e 654 895
e 654 920
e 654 921
e 655 656
e 657 658
e 659 660
e 660 661
e 662 667
e 663 664
e 663 665
e 665 666
e 667 824
e 667 826
e 668 669
e 669 670
e 670 675
e 671 672
e 671 673
e 671 674
e 675 676
e 676 677
e 676 700
e 676 705
e 676 871
e 676 872
e 678 679
e 679 680
e 679 685
e 679 686
e 679 687
e 680 681
e 682 683
e 683 684
e 683 685
e 685 697
e 685 699
e 685 1740
e 685 1741
e 685 1757
e 685 1765
e 686 688
e 687 688
e 689 690
e 689 691
e 689 692
e 689 694
e 689 695
e 692 693
e 695 696
e 697 698
e 698 699
e 700 701
e 701 702
e 701 703
e 703 704
e 703 705
e 703 706
e 703 707
e 706 711
e 707 708
e 707 709
e 709 710
e 711 879
e 711 898
e 711 900
e 712 718
e 712 721
e 713 714
e 713 715
e 713 716
e 713 717
e 718 719
e 718 720
e 721 722
e 721 723
e 724 725
e 724 726
e 724 727
e 727 728
e 727 729
e 727 730
e 730 731
e 731 733
e 731 764
e 731 775
e 731 776
e 732 795
e 732 797
e 732 802
e 734 739
e 734 740
e 734 741
e 735 736
e 735 737
e 735 738
e 741 742
e 741 744
e 741 790
e 741 809
e 741 830
e 741 1116
e 741 1117
e 742 743
e 744 745
e 746 747
e 746 748
e 746 749
e 748 753
e 748 820
e 748 835
e 748 852
e 748 853
e 749 750
e 750 751
e 751 752
e 752 754
e 752 820
e 752 840
e 752 852
e 752 854
e 755 756
e 755 757
e 755 758
e 759 760
e 759 761
e 759 762
e 763 764
e 764 765
e 764 766
e 764 767
e 764 768
e 764 769
e 764 790
e 764 791
e 767 768
e 768 769
e 768 771
e 769 770
e 771 772
e 772 773
e 772 774
e 772 775
e 774 775
e 775 782
e 775 790
e 776 777
e 776 780
e 776 782
e 777 778
e 778 779
e 780 781
e 782 783
e 782 784
e 782 785
e 782 786
e 782 787
e 787 788
e 787 789
e 790 816
e 790 818
e 791 796
e 791 799
e 792 793
e 792 794
e 792 812
e 792 814
e 795 796
e 796 797
e 796 798
e 796 799
e 796 800
e 799 806
e 799 807
e 800 801
e 801 802
e 801 803
e 802 804
e 804 1146
e 804 1147
e 804 1149
e 805 806
e 807 808
e 809 810
e 809 811
e 809 827
e 809 829
e 812 813
e 814 815
e 816 817
e 818 819
e 820 821
e 821 822
e 822 823
e 822 824
e 824 825
e 826 894
e 826 933
e 826 936
e 826 940
e 827 828
e 827 830
e 829 831
e 829 834
e 829 835
e 829 836
e 830 831
e 831 832
e 832 833
e 835 840
e 835 841
e 836 837
e 836 838
e 838 839
e 838 840
e 841 842
e 842 843
e 843 844
e 843 845
e 845 846
e 846 847
e 846 848
e 848 849
e 849 850
e 849 851
e 849 1017
e 849 1029
e 849 1031
e 852 857
e 853 856
e 854 855
e 854 856
e 856 866
e 856 868
e 857 858
e 857 859
e 857 860
e 857 861
e 857 862
e 857 863
e 857 864
e 857 865
e 866 867
e 868 869
e 868 870
e 871 874
e 872 873
e 872 875
e 874 876
e 874 877
e 874 881
e 874 882
e 875 895
e 875 898
e 877 878
e 877 879
e 879 880
e 880 881
e 880 898
e 880 899
e 882 883
e 883 884
e 883 885
e 883 886
e 883 888
e 886 887
e 887 889
e 888 889
e 888 890
e 888 891
e 888 892
e 888 893
e 893 894
e 893 897
e 893 1051
e 893 898
e 893 1079
e 893 1082
e 894 895
e 895 912
e 895 914
e 896 897
e 896 898
e 896 908
e 896 910
e 898 929
e 898 1169
e 898 1176
e 898 1177
e 899 904
e 900 901
e 900 902
e 902 903
e 903 918
e 903 1096
e 903 1159
e 903 1167
e 903 1169
e 903 1170
e 904 905
e 904 906
e 904 907
e 904 916
e 904 927
e 904 929
e 904 944
e 904 945
e 908 909
e 910 911
e 912 913
e 914 915
e 916 917
e 918 919
e 920 922
e 920 923
e 921 922
e 922 924
e 922 925
e 924 925
e 925 926
e 927 928
e 927 929
e 929 930
e 930 931
e 931 932
e 931 1176
e 931 1180
e 933 934
e 933 935
e 936 937
e 936 938
e 938 939
e 940 941
e 940 942
e 940 1028
e 940 1035
e 940 1052
e 940 1063
e 942 943
e 944 950
e 945 946
e 945 947
e 947 948
e 948 949
e 949 956
e 949 958
e 949 960
e 950 951
e 950 952
e 950 953
e 950 954
e 950 955
e 950 966
e 950 974
e 950 978
e 950 979
e 950 981
e 956 957
e 956 958
e 957 967
e 957 969
e 957 971
e 958 959
e 960 961
e 961 962
e 961 964
e 962 963
e 963 964
e 963 965
e 965 966
e 967 968
e 969 970
e 971 972
e 972 978
e 972 976
e 972 984
e 972 985
e 973 977
e 973 979
e 973 983
e 974 975
e 976 1008
e 976 1724
e 976 1726
e 976 1728
e 976 1730
e 977 978
e 979 980
e 981 982
e 983 1177
e 983 1179
e 984 985
e 984 986
e 985 987
e 985 993
e 985 994
e 987 988
e 988 989
e 989 990
e 990 991
e 990 992
e 992 993
e 993 995
e 993 998
e 994 1001
e 994 1002
e 995 996
e 995 997
e 998 999
e 998 1000
e 1001 1003
e 1002 1003
e 1002 1004
e 1003 1005
e 1003 1006
e 1003 1008
e 1003 1010
e 1003 1012
e 1003 1014
e 1006 1007
e 1008 1009
e 1010 1011
e 1011 1012
e 1012 1013
e 1014 1015
e 1014 1016
e 1017 1018
e 1018 1019
e 1019 1020
e 1019 1021
e 1019 1022
e 1022 1023
e 1022 1063
e 1022 1073
e 1023 1024
e 1024 1025
e 1025 1026
e 1026 1027
e 1028 1029
e 1029 1030
e 1029 1036
e 1029 1039
e 1031 1032
e 1031 1033
e 1033 1034
e 1033 1035
e 1033 1038
e 1033 1059
e 1033 1061
e 1036 1037
e 1037 1038
e 1038 1039
e 1039 1040
e 1039 1041
e 1039 1042
e 1039 1043
e 1039 1045
e 1043 1044
e 1045 1046
e 1045 1047
e 1047 1048
e 1047 1049
e 1049 1050
e 1049 1051
e 1049 1054
e 1049 1058
e 1051 1052
e 1051 1053
e 1053 1054
e 1053 1055
e 1053 1056
e 1056 1057
e 1056 1058
e 1058 1059
e 1058 1060
e 1058 1062
e 1061 1068
e 1062 1078
e 1062 1080
e 1063 1064
e 1063 1065
e 1063 1066
e 1063 1067
e 1068 1069
e 1068 1070
e 1068 1071
e 1068 1072
e 1073 1074
e 1073 1075
e 1073 1076
e 1073 1077
e 1078 1079
e 1079 1086
e 1080 1081
e 1080 1088
e 1082 1083
e 1082 1084
e 1082 1085
e 1086 1087
e 1086 1088
e 1086 1090
e 1086 1092
e 1088 1089
e 1088 1090
e 1088 1094
e 1088 1098
e 1088 1099
e 1090 1091
e 1092 1093
e 1092 1105
e 1092 1106
e 1094 1095
e 1095 1096
e 1096 1097
e 1098 1100
e 1099 1100
e 1100 1101
e 1100 1102
e 1101 1104
e 1102 1103
e 1102 1104
e 1104 1105
e 1104 1112
e 1104 1113
e 1104 1852
e 1104 1859
e 1104 1862
e 1106 1107
e 1106 1108
e 1106 1110
e 1106 1113
e 1106 1183
e 1106 1253
e 1106 1254
e 1108 1109
e 1110 1111
e 1112 1113
e 1113 1114
e 1113 1115
e 1116 1118
e 1117 1119
e 1117 1120
e 1118 1121
e 1120 1122
e 1120 1124
e 1121 1125
e 1121 1130
e 1121 1132
e 1122 1123
e 1124 1127
e 1125 1126
e 1127 1128
e 1127 1129
e 1127 1135
e 1127 1140
e 1127 1151
e 1127 1154
e 1130 1131
e 1132 1133
e 1133 1134
e 1133 1135
e 1133 1136
e 1135 1138
e 1136 1137
e 1137 1138
e 1138 1139
e 1140 1141
e 1141 1142
e 1141 1143
e 1141 1144
e 1141 1145
e 1144 1145
e 1145 1146
e 1145 1147
e 1147 1148
e 1149 1150
e 1149 1152
e 1150 1151
e 1151 1152
e 1151 1154
e 1152 1153
e 1154 1155
e 1154 1156
e 1156 1157
e 1156 1158
e 1159 1160
e 1160 1161
e 1160 1162
e 1162 1163
e 1163 1164
e 1163 1166
e 1163 1183
e 1163 1206
e 1163 1247
e 1163 1256
e 1164 1165
e 1167 1168
e 1167 1169
e 1169 1177
e 1169 1178
e 1170 1171
e 1170 1172
e 1172 1173
e 1172 1178
e 1172 1213
e 1172 1214
e 1174 1175
e 1175 1176
e 1176 1185
e 1176 1184
e 1176 1190
e 1177 1184
e 1177 1185
e 1178 1181
e 1179 1185
e 1179 1191
e 1179 1200
e 1179 1202
e 1180 1185
e 1180 1192
e 1180 1461
e 1180 1464
e 1181 1182
e 1181 1194
e 1181 1198
e 1181 1258
e 1181 1266
e 1181 1292
e 1181 1295
e 1183 1184
e 1184 1186
e 1184 1253
e 1184 1258
e 1185 1187
e 1185 1188
e 1188 1189
e 1190 1219
e 1190 1222
e 1191 1192
e 1192 1193
e 1192 1196
e 1192 1200
e 1192 1203
e 1192 1209
e 1192 1423
e 1192 1426
e 1194 1195
e 1196 1197
e 1198 1199
e 1200 1201
e 1202 1471
e 1202 1498
e 1202 1500
e 1203 1204
e 1204 1205
e 1206 1207
e 1206 1208
e 1209 1210
e 1209 1211
e 1209 1212
e 1213 1215
e 1214 1216
e 1215 1217
e 1216 1218
e 1216 1224
e 1217 1219
e 1219 1220
e 1219 1221
e 1219 1236
e 1219 1238
e 1222 1223
e 1222 1226
e 1224 1225
e 1224 1232
e 1224 1234
e 1224 1258
e 1224 1261
e 1224 1262
e 1226 1227
e 1226 1228
e 1226 1230
e 1226 1295
e 1226 1360
e 1226 1384
e 1226 1388
e 1228 1229
e 1230 1231
e 1232 1233
e 1234 1235
e 1236 1237
e 1237 1238
e 1238 1239
e 1238 1240
e 1238 1241
e 1241 1242
e 1242 1243
e 1242 1246
e 1243 1244
e 1244 1245
e 1244 1246
e 1246 1390
e 1246 1407
e 1246 1504
e 1246 1506
e 1247 1248
e 1247 1249
e 1249 1250
e 1250 1251
e 1251 1252
e 1252 1253
e 1252 1255
e 1254 1296
e 1254 1307
e 1255 1259
e 1256 1257
e 1257 1262
e 1257 1268
e 1257 1269
e 1258 1296
e 1258 1297
e 1258 1302
e 1259 1260
e 1259 1275
e 1259 1279
e 1261 1266
e 1262 1263
e 1262 1264
e 1264 1265
e 1266 1267
e 1266 1271
e 1266 1363
e 1266 1364
e 1266 1366
e 1266 1372
e 1266 1375
e 1268 1271
e 1269 1270
e 1269 1271
e 1271 1272
e 1271 1273
e 1271 1277
e 1271 1286
e 1271 1288
e 1271 1292
e 1273 1274
e 1275 1276
e 1277 1278
e 1279 1280
e 1279 1282
e 1279 1284
e 1279 1307
e 1279 1309
e 1279 1311
e 1280 1281
e 1282 1283
e 1284 1285
e 1286 1287
e 1287 1288
e 1288 1289
e 1289 1290
e 1290 1291
e 1290 1293
e 1290 1294
e 1290 1296
e 1290 1309
e 1290 1313
e 1290 1314
e 1292 1319
e 1292 1321
e 1295 1297
e 1295 1306
e 1296 1297
e 1297 1298
e 1297 1299
e 1297 1300
e 1300 1301
e 1302 1303
e 1302 1304
e 1302 1305
e 1306 1308
e 1306 1361
e 1306 1363
e 1307 1309
e 1309 1310
e 1309 1313
e 1309 1349
e 1309 1350
e 1311 1312
e 1312 1331
e 1312 1333
e 1312 1335
e 1312 1337
e 1313 1314
e 1314 1315
e 1314 1316
e 1314 1317
e 1317 1318
e 1317 1323
e 1317 1325
e 1317 1327
e 1317 1329
e 1319 1320
e 1321 1322
e 1323 1324
e 1325 1326
e 1327 1328
e 1329 1330
e 1331 1332
e 1333 1334
e 1335 1336
e 1337 1338
e 1337 1339
e 1337 1341
e 1337 1343
e 1337 1345
e 1337 1347
e 1337 1349
e 1339 1340
e 1341 1342
e 1343 1344
e 1345 1346
e 1347 1348
e 1349 1351
e 1349 1352
e 1349 1354
e 1349 1356
e 1349 1358
e 1350 1351
e 1352 1353
e 1354 1355
e 1356 1357
e 1358 1359
e 1360 1388
e 1360 1390
e 1361 1362
e 1363 1370
e 1363 1373
e 1363 1376
e 1364 1365
e 1364 1366
e 1366 1367
e 1366 1368
e 1368 1369
e 1369 1370
e 1370 1371
e 1371 1372
e 1371 1373
e 1373 1374
e 1375 1377
e 1375 1395
e 1375 1397
e 1376 1378
e 1378 1379
e 1378 1380
e 1378 1381
e 1378 1382
e 1382 1383
e 1382 1384
e 1382 1385
e 1382 1386
e 1383 1384
e 1384 1385
e 1384 1399
e 1384 1401
e 1384 1403
e 1384 1405
e 1386 1387
e 1388 1389
e 1388 1409
e 1388 1413
e 1390 1391
e 1391 1392
e 1391 1393
e 1391 1394
e 1391 1409
e 1391 1411
e 1395 1396
e 1397 1398
e 1399 1400
e 1401 1402
e 1403 1404
e 1405 1406
e 1407 1408
e 1408 1409
e 1409 1410
e 1409 1417
e 1409 1517
e 1409 1522
e 1411 1412
e 1412 1415
e 1412 1416
e 1413 1414
e 1413 1514
e 1413 1522
e 1413 1526
e 1413 1587
e 1413 1588
e 1415 1417
e 1416 1417
e 1416 1418
e 1416 1420
e 1416 1421
e 1417 1418
e 1417 1419
e 1417 1442
e 1417 1445
e 1420 1421
e 1421 1422
e 1423 1424
e 1424 1425
e 1425 1426
e 1425 1430
e 1426 1427
e 1426 1428
e 1426 1429
e 1426 1430
e 1426 1432
e 1426 1436
e 1426 1438
e 1426 1440
e 1426 1448
e 1426 1450
e 1430 1431
e 1430 1432
e 1432 1433
e 1433 1434
e 1434 1435
e 1436 1437
e 1438 1439
e 1440 1441
e 1442 1443
e 1442 1444
e 1445 1446
e 1445 1447
e 1448 1449
e 1449 1450
e 1449 1451
e 1449 1452
e 1452 1453
e 1454 1455
e 1455 1458
e 1455 1459
e 1456 1457
e 1456 1458
e 1456 1460
e 1457 1458
e 1459 1460
e 1461 1462
e 1461 1463
e 1463 1465
e 1463 1466
e 1463 1467
e 1464 1473
e 1464 1496
e 1464 1498
e 1464 1501
e 1464 1502
e 1467 1468
e 1467 1469
e 1468 1469
e 1468 1470
e 1469 1471
e 1469 1473
e 1469 1475
e 1469 1478
e 1469 1484
e 1469 1486
e 1469 1488
e 1471 1472
e 1473 1474
e 1475 1476
e 1475 1477
e 1478 1479
e 1478 1480
e 1480 1481
e 1480 1482
e 1480 1483
e 1480 1484
e 1480 1486
e 1480 1488
e 1480 1491
e 1484 1485
e 1486 1487
e 1488 1489
e 1488 1490
e 1490 1491
e 1490 1492
e 1490 1493
e 1490 1494
e 1494 1495
e 1496 1497
e 1496 1498
e 1498 1499
e 1498 1544
e 1498 1558
e 1498 1560
e 1498 1564
e 1498 1565
e 1500 1501
e 1500 1503
e 1500 1504
e 1500 1507
e 1500 1508
e 1502 1560
e 1502 1678
e 1502 1679
e 1503 1504
e 1504 1505
e 1504 1511
e 1504 1512
e 1506 1507
e 1506 1509
e 1508 1514
e 1508 1588
e 1508 1595
e 1509 1510
e 1510 1628
e 1510 1629
e 1511 1512
e 1512 1513
e 1513 1514
e 1513 1515
e 1513 1516
e 1513 1525
e 1516 1517
e 1517 1518
e 1517 1519
e 1517 1520
e 1520 1521
e 1521 1525
e 1521 1526
e 1522 1523
e 1522 1524
e 1522 1528
e 1522 1529
e 1525 1526
e 1525 1541
e 1525 1542
e 1525 1546
e 1525 1549
e 1526 1527
e 1527 1546
e 1527 1581
e 1527 1585
e 1528 1529
e 1529 1530
e 1529 1531
e 1529 1532
e 1532 1533
e 1532 1534
e 1532 1535
e 1532 1536
e 1532 1537
e 1537 1538
e 1537 1539
e 1537 1540
e 1537 1574
e 1537 1576
e 1541 1542
e 1542 1543
e 1544 1545
e 1546 1547
e 1546 1548
e 1549 1550
e 1550 1551
e 1550 1552
e 1552 1553
e 1552 1554
e 1553 1555
e 1554 1555
e 1554 1556
e 1554 1557
e 1554 1596
e 1554 1600
e 1554 1604
e 1558 1559
e 1558 1560
e 1560 1561
e 1561 1562
e 1561 1563
e 1563 1564
e 1564 1565
e 1564 1567
e 1564 1569
e 1564 1570
e 1565 1566
e 1567 1568
e 1570 1571
e 1570 1572
e 1572 1573
e 1574 1575
e 1574 1576
e 1574 1577
e 1574 1581
e 1576 1578
e 1576 1579
e 1576 1580
e 1576 1587
e 1576 1589
e 1581 1582
e 1581 1583
e 1581 1584
e 1585 1586
e 1585 1589
e 1585 1591
e 1587 1588
e 1588 1602
e 1588 1607
e 1588 1609
e 1588 1611
e 1588 1613
e 1588 1615
e 1588 1622
e 1588 1633
e 1588 1637
e 1589 1590
e 1591 1592
e 1592 1593
e 1593 1594
e 1593 1597
e 1595 1596
e 1595 1600
e 1595 1625
e 1595 1682
e 1595 1683
e 1595 1686
e 1597 1598
e 1597 1599
e 1597 1619
e 1597 1633
e 1597 1636
e 1600 1601
e 1602 1603
e 1604 1605
e 1604 1606
e 1606 1617
e 1607 1608
e 1609 1610
e 1611 1612
e 1613 1614
e 1615 1616
e 1617 1618
e 1617 1620
e 1618 1619
e 1618 1620
e 1618 1622
e 1620 1621
e 1620 1623
e 1620 1624
e 1620 1625
e 1622 1625
e 1625 1626
e 1625 1627
e 1628 1647
e 1629 1630
e 1629 1632
e 1630 1631
e 1632 1646
e 1632 1650
e 1632 1682
e 1632 1683
e 1633 1634
e 1633 1635
e 1633 1636
e 1636 1637
e 1636 1640
e 1636 1641
e 1636 1642
e 1636 1643
e 1636 1644
e 1636 1645
e 1636 1651
e 1636 1655
e 1637 1638
e 1637 1639
e 1647 1648
e 1647 1649
e 1647 1650
e 1647 1653
e 1647 1662
e 1647 1663
e 1647 1668
e 1647 1670
e 1647 1676
e 1649 1650
e 1651 1652
e 1653 1654
e 1655 1656
e 1655 1659
e 1656 1657
e 1656 1658
e 1659 1660
e 1659 1661
e 1662 1663
e 1663 1664
e 1663 1665
e 1663 1666
e 1663 1667
e 1663 1668
e 1663 1670
e 1663 1672
e 1668 1669
e 1670 1671
e 1672 1673
e 1673 1674
e 1673 1675
e 1676 1677
e 1676 1678
e 1678 1682
e 1678 1683
e 1678 1684
e 1679 1680
e 1679 1681
e 1681 1687
e 1681 1688
e 1681 1695
e 1681 1697
e 1682 1723
e 1682 1739
e 1682 1740
e 1683 1723
e 1683 1741
e 1683 1742
e 1684 1685
e 1685 1687
e 1685 1699
e 1685 1701
e 1686 1691
e 1686 1693
e 1686 1740
e 1686 1741
e 1688 1689
e 1688 1690
e 1688 1701
e 1688 1709
e 1691 1692
e 1693 1694
e 1695 1696
e 1695 1697
e 1697 1698
e 1698 1707
e 1698 1711
e 1699 1700
e 1699 1701
e 1701 1702
e 1701 1703
e 1701 1704
e 1701 1705
e 1701 1706
e 1701 1707
e 1701 1708
e 1701 1709
e 1701 1714
e 1701 1716
e 1709 1710
e 1711 1712
e 1712 1713
e 1714 1715
e 1716 1717
e 1716 1718
e 1716 1719
e 1716 1720
e 1716 1721
e 1721 1722
e 1723 1740
e 1723 1741
e 1724 1725
e 1725 1726
e 1725 1728
e 1725 1730
e 1725 1732
e 1725 1735
e 1725 1737
e 1725 1780
e 1725 1783
e 1725 1789
e 1725 1794
e 1725 1796
e 1726 1727
e 1728 1729
e 1730 1731
e 1732 1733
e 1732 1734
e 1735 1736
e 1737 1738
e 1739 1809
e 1739 1812
e 1740 1743
e 1740 1745
e 1740 1747
e 1741 1747
e 1741 1748
e 1741 1750
e 1742 1814
e 1742 1816
e 1743 1744
e 1745 1746
e 1747 1752
e 1747 1754
e 1748 1749
e 1750 1751
e 1752 1753
e 1752 1759
e 1754 1755
e 1754 1756
e 1754 1758
e 1757 1758
e 1757 1759
e 1757 1760
e 1758 1764
e 1758 1766
e 1759 1762
e 1760 1761
e 1762 1763
e 1763 1764
e 1763 1766
e 1763 1769
e 1765 1769
e 1765 1770
e 1766 1767
e 1766 1768
e 1766 1772
e 1766 1774
e 1769 1776
e 1769 1778
e 1770 1771
e 1772 1773
e 1774 1775
e 1776 1777
e 1778 1779
e 1780 1781
e 1781 1782
e 1781 1783
e 1781 1784
e 1781 1785
e 1781 1787
e 1781 1789
e 1785 1786
e 1787 1788
e 1789 1790
e 1789 1792
e 1790 1791
e 1792 1793
e 1794 1795
e 1794 1796
e 1796 1797
e 1796 1798
e 1796 1800
e 1796 1802
e 1796 1803
e 1798 1799
e 1800 1801
e 1802 1803
e 1802 1804
e 1803 1806
e 1803 1807
e 1804 1805
e 1807 1808
e 1809 1810
e 1809 1811
e 1811 1814
e 1811 1824
e 1811 1826
e 1812 1813
e 1812 1818
e 1814 1815
e 1816 1817
e 1816 1818
e 1818 1819
e 1818 1821
e 1819 1820
e 1819 1823
e 1821 1822
e 1821 1823
e 1823 1824
e 1823 1826
e 1823 1828
e 1823 1837
e 1823 1838
e 1824 1825
e 1826 1827
e 1828 1829
e 1828 1830
e 1828 1831
e 1828 1832
e 1828 1833
e 1833 1834
e 1833 1835
e 1833 1836
e 1833 1843
e 1833 1844
e 1833 1846
e 1837 1838
e 1838 1839
e 1838 1840
e 1838 1841
e 1838 1842
e 1838 1843
e 1838 1848
e 1838 1850
e 1844 1845
e 1846 1847
e 1848 1849
e 1850 1851
e 1852 1853
e 1852 1854
e 1854 1855
e 1855 1856
e 1855 1857
e 1855 1861
e 1855 1862
e 1857 1858
e 1859 1860
e 1859 1861
e 1861 1863
e 1861 1864
e 1861 1865
e 1861 1867
e 1861 1869
e 1861 1871
e 1862 1877
e 1862 1879
e 1862 1881
e 1862 1883
e 1862 1885
e 1862 1887
e 1865 1866
e 1867 1868
e 1869 1870
e 1871 1872
e 1871 1873
e 1871 1875
e 1873 1874
e 1875 1876
e 1877 1878
e 1879 1880
e 1881 1882
e 1883 1884
e 1885 1886
e 1887 1888
l 1420
t 451 1332
